1 37 59 57 7 70 62 77 36 85 12 10 27 73 48 41 95 65 67 61 82 97 13 56 99 40 60 34 22 71 24 9 86 49 88 74 68 29 3 38 66 44 72 20 16 76 15 54 69 25 47 6 30 81 39 92 58 42 51 43 78 17 8 19 14 90 4 52 94 23 100 32 45 63 26 83 87 55 46 28 2 98 50 91 21 64 53 93 96 5 33 84 79 80 89 35 18 31 75 11
